(declare-fun e () String)
(declare-fun g () String)
(declare-fun b () String)
(declare-fun d () String)
(declare-fun a () String)
(declare-fun h () String)
(assert (= (str.++ "gh" e "e") (str.++ d "dh")))
(assert (= g (str.++ a g "eg")))
(assert (= (str.++ h "e") (str.++ "e" b "g" h)))

(check-sat)
